NAME: tsp30-18
TYPE: TSP
DIMENSION: 30
EDGE_WEIGHT_TYPE: EUC_2D
NODE_COORD_SECTION
0 59 10
1 82 49
2 55 93
3 78 67
4 21 4
5 51 100
6 85 73
7 36 18
8 83 85
9 99 27
10 40 11
11 47 71
12 83 4
13 28 73
14 74 6
15 69 38
16 11 28
17 81 43
18 4 33
19 74 77
20 11 68
21 0 61
22 82 24
23 3 79
24 35 14
25 19 2
26 61 93
27 5 19
28 67 68
29 91 87
EOF